proyfinal/src/viki/013/andrea/andrea-localstore/experimentInOfficeAgust.take6/worker_9/dba5f21a-59f6-40b7-88e7-8dd69e02a6c2.als.cnf.out
Reading from standard input... Use '--help' for help.
============================[ Problem Statistics ]=============================
|                                                                             |
|  Number of variables:         87638                                         |
|  Number of clauses:          161767                                         |
|  Parse time:                   0.03 s                                       |
|                                                                             |
============================[ Search Statistics ]==============================
| Conflicts |          ORIGINAL         |          LEARNT          | Progress |
|           |    Vars  Clauses Literals |    Limit  Clauses Lit/Cl |          |
===============================================================================
|       100 |   62002   103764   259346 |    38046      100      9 | 29.252 % |
|       250 |   61966   103731   259262 |    41851      246     48 | 29.293 % |
|       475 |   61965   103588   258908 |    46036      457     61 | 29.295 % |
|       812 |   61785   102872   257024 |    50640      737     82 | 29.500 % |
|      1318 |   61785   102872   257024 |    55704     1243    108 | 29.500 % |
|      2077 |   61767   102802   256857 |    61274     1814     99 | 29.520 % |
===============================================================================
restarts              : 15
conflicts             : 2944           (7141 /sec)
decisions             : 13005          (0.00 % random) (31543 /sec)
propagations          : 4745961        (11511276 /sec)
conflict literals     : 296309         (47.45 % deleted)
Memory used           : 21.12 MB
CPU time              : 0.412288 s

UNSATISFIABLE
